db/data/32390168121849168412987154622859011316.z3.out
-------------------
2500.126655686
